(set-logic QF_S)
(declare-fun var0 () String)
(assert (str.in.re var0 (re.++ (re.union (re.* (str.to.re "000")) (re.* (str.to.re "1"))) (re.++ (re.+ (re.+ (str.to.re "22"))) (re.++ (re.+ (re.+ (str.to.re "333"))) (re.++ (re.* (re.+ (str.to.re "44"))) (re.++ (re.* (re.+ (str.to.re "55"))) (re.++ (re.union (re.+ (str.to.re "66")) (re.+ (str.to.re "77"))) (re.++ (re.union (re.+ (str.to.re "8")) (re.+ (str.to.re "99"))) (re.++ (re.union (re.union (str.to.re "a") (str.to.re "bbb")) (re.union (str.to.re "c") (str.to.re "d"))) (re.++ (re.union (re.union (str.to.re "ee") (str.to.re "fff")) (re.union (str.to.re "gg") (str.to.re "hhh"))) (re.+ (re.union (str.to.re "iii") (str.to.re "j"))))))))))))))
(check-sat)